(set-logic HORN)

(declare-datatypes ((TNode 0) (TData 0)) (((TNode  (next Int) (prev Int) (pData Int) (data TData)))
                                          ((TData  (x Int)))))
(declare-datatypes ((HeapObject 0)) (((O_Int  (getInt Int)) (O_UInt  (getUInt Int)) (O_Addr  (getAddr Int)) (O_TData  (getTData TData)) (O_TNode  (getTNode TNode)) (defObj ))))
(declare-datatypes ((Heap 0)) (((HeapCtor  (HeapSize Int) (HeapContents (Array Int HeapObject))))))

(declare-fun |inv_main33| ( Heap Int Int Int ) Bool)
(declare-fun |inv_main24| ( Heap Int Int Int ) Bool)
(declare-fun |inv_main7| ( Heap Int Int ) Bool)
(declare-fun |inv_main22| ( Heap Int Int ) Bool)
(declare-fun |inv_main30| ( Heap Int Int ) Bool)
(declare-fun |inv_main29| ( Heap Int Int ) Bool)
(declare-fun |inv_main11| ( Heap Int Int Int ) Bool)
(declare-fun |inv_main16| ( Heap Int Int ) Bool)
(declare-fun |inv_main5| ( Heap Int Int ) Bool)
(declare-fun |inv_main8| ( Heap Int Int ) Bool)
(declare-fun |inv_main18| ( Heap Int Int ) Bool)
(declare-fun |CHC_COMP_FALSE| ( ) Bool)
(declare-fun |inv_main2| ( Heap ) Bool)
(declare-fun |inv_main26| ( Heap Int Int Int ) Bool)
(declare-fun |inv_main36| ( Heap Int Int Int Int ) Bool)

(assert
  (forall ( (v_0 Heap) ) 
    (=>
      (and
        (and true (= v_0 (HeapCtor 0 ((as const (Array Int HeapObject)) defObj))))
      )
      (inv_main2 v_0)
    )
  )
)
(assert
  (forall ( (A Int) (B Heap) (C TNode) (D Int) (E Int) (F Heap) (G Int) (H Int) (I Int) (J Heap) ) 
    (=>
      (and
        (inv_main18 J I H)
        (let ((a!1 (ite (and (not (<= I 0)) (>= (HeapSize J) I))
                (select (HeapContents J) I)
                defObj))
      (a!4 (HeapCtor (+ 1 (HeapSize F))
                     (store (HeapContents F) (+ 1 (HeapSize F)) (O_TNode C)))))
(let ((a!2 (O_TNode (TNode (next (getTNode a!1))
                           H
                           (pData (getTNode a!1))
                           (data (getTNode a!1))))))
(let ((a!3 (ite (and (not (<= I 0)) (>= (HeapSize J) I))
                (HeapCtor (HeapSize J) (store (HeapContents J) I a!2))
                J)))
  (and (= F a!3)
       (= A (+ 1 (HeapSize F)))
       (not (= G 0))
       (= E I)
       (= D H)
       ((_ is O_TNode) a!1)
       (= B a!4)))))
      )
      (inv_main24 B E D A)
    )
  )
)
(assert
  (forall ( (A Int) (B Int) (C Int) (D Int) (E Int) (F Int) (G TNode) (H Heap) (I Heap) (J Int) (K Int) (L Int) (M Heap) ) 
    (=>
      (and
        (inv_main11 M L K J)
        (let ((a!1 (HeapCtor (+ 1 (HeapSize H))
                     (store (HeapContents H) (+ 1 (HeapSize H)) (O_TNode G))))
      (a!2 (ite (and (not (<= K 0)) (>= (HeapSize M) K))
                (select (HeapContents M) K)
                defObj)))
(let ((a!3 (O_TNode (TNode (next (getTNode a!2))
                           (prev (getTNode a!2))
                           J
                           (data (getTNode a!2))))))
(let ((a!4 (ite (and (not (<= K 0)) (>= (HeapSize M) K))
                (HeapCtor (HeapSize M) (store (HeapContents M) K a!3))
                M)))
  (and (= I a!1)
       (= F E)
       (= E K)
       (= D E)
       (= C (+ 1 (HeapSize H)))
       (not (= B 0))
       (= A L)
       ((_ is O_TNode) a!2)
       (= H a!4)))))
      )
      (inv_main16 I F C)
    )
  )
)
(assert
  (forall ( (A Int) (B Int) (C Int) (D Int) (E Int) (F Int) (G TNode) (H Heap) (I Heap) (J Int) (K Int) (L Int) (M Heap) ) 
    (=>
      (and
        (inv_main24 M L K J)
        (let ((a!1 (HeapCtor (+ 1 (HeapSize H))
                     (store (HeapContents H) (+ 1 (HeapSize H)) (O_TNode G))))
      (a!2 (ite (and (not (<= K 0)) (>= (HeapSize M) K))
                (select (HeapContents M) K)
                defObj)))
(let ((a!3 (O_TNode (TNode (next (getTNode a!2))
                           (prev (getTNode a!2))
                           J
                           (data (getTNode a!2))))))
(let ((a!4 (ite (and (not (<= K 0)) (>= (HeapSize M) K))
                (HeapCtor (HeapSize M) (store (HeapContents M) K a!3))
                M)))
  (and (= I a!1)
       (= F E)
       (= E K)
       (= D E)
       (= C (+ 1 (HeapSize H)))
       (not (= B 0))
       (= A L)
       ((_ is O_TNode) a!2)
       (= H a!4)))))
      )
      (inv_main16 I F C)
    )
  )
)
(assert
  (forall ( (A Int) (B Int) (C Int) (D Int) (E Int) (F Int) (G TNode) (H Heap) (I Heap) (J Int) (K Int) (L Int) (M Heap) ) 
    (=>
      (and
        (inv_main26 M L K J)
        (let ((a!1 (HeapCtor (+ 1 (HeapSize H))
                     (store (HeapContents H) (+ 1 (HeapSize H)) (O_TNode G))))
      (a!2 (ite (and (not (<= K 0)) (>= (HeapSize M) K))
                (select (HeapContents M) K)
                defObj)))
(let ((a!3 (O_TNode (TNode (next (getTNode a!2))
                           (prev (getTNode a!2))
                           J
                           (data (getTNode a!2))))))
(let ((a!4 (ite (and (not (<= K 0)) (>= (HeapSize M) K))
                (HeapCtor (HeapSize M) (store (HeapContents M) K a!3))
                M)))
  (and (= I a!1)
       (= F E)
       (= E K)
       (= D E)
       (= C (+ 1 (HeapSize H)))
       (not (= B 0))
       (= A L)
       ((_ is O_TNode) a!2)
       (= H a!4)))))
      )
      (inv_main16 I F C)
    )
  )
)
(assert
  (forall ( (A Int) (B Int) (C Heap) (D Int) (E Int) (F Int) (G Int) (H Int) (I Heap) ) 
    (=>
      (and
        (inv_main33 I H G F)
        (let ((a!1 (ite (and (not (<= G 0)) (>= (HeapSize I) G))
                (select (HeapContents I) G)
                defObj)))
  (and (= E F)
       (not (= E D))
       (= B H)
       (= A G)
       (= D (pData (getTNode a!1)))
       ((_ is O_TNode) a!1)
       (= C I)))
      )
      (inv_main36 C B A E D)
    )
  )
)
(assert
  (forall ( (A Int) (B Int) (C Heap) (D Int) (E Int) (F Int) (G Heap) ) 
    (=>
      (and
        (inv_main18 G F E)
        (let ((a!1 (ite (and (not (<= F 0)) (>= (HeapSize G) F))
                (select (HeapContents G) F)
                defObj)))
(let ((a!2 (O_TNode (TNode (next (getTNode a!1))
                           E
                           (pData (getTNode a!1))
                           (data (getTNode a!1))))))
(let ((a!3 (ite (and (not (<= F 0)) (>= (HeapSize G) F))
                (HeapCtor (HeapSize G) (store (HeapContents G) F a!2))
                G)))
  (and (= D 0) (= B F) (= A E) ((_ is O_TNode) a!1) (= C a!3)))))
      )
      (inv_main22 C B A)
    )
  )
)
(assert
  (forall ( (A Int) (B Int) (C Int) (D Heap) (E Int) (F Int) (G Heap) ) 
    (=>
      (and
        (inv_main22 G F E)
        (let ((a!1 (ite (and (not (<= C 0)) (>= (HeapSize D) C))
                (select (HeapContents D) C)
                defObj))
      (a!2 (ite (and (not (<= E 0)) (>= (HeapSize G) E))
                (select (HeapContents G) E)
                defObj)))
(let ((a!3 (store (HeapContents G)
                  (+ 1 (HeapSize G))
                  (O_TData (data (getTNode a!2))))))
(let ((a!4 (= D (HeapCtor (+ 1 (HeapSize G)) a!3))))
  (and (= C E)
       (= B F)
       (= A (+ 1 (HeapSize D)))
       ((_ is O_TNode) a!1)
       ((_ is O_TNode) a!2)
       a!4))))
      )
      (inv_main26 D B C A)
    )
  )
)
(assert
  (forall ( (A Heap) (B Int) (C Int) (D Heap) ) 
    (=>
      (and
        (inv_main5 D C B)
        (let ((a!1 (ite (and (not (<= B 0)) (>= (HeapSize D) B))
                (select (HeapContents D) B)
                defObj)))
(let ((a!2 (O_TNode (TNode 0
                           (prev (getTNode a!1))
                           (pData (getTNode a!1))
                           (data (getTNode a!1))))))
(let ((a!3 (ite (and (not (<= B 0)) (>= (HeapSize D) B))
                (HeapCtor (HeapSize D) (store (HeapContents D) B a!2))
                D)))
  (and ((_ is O_TNode) a!1) (= A a!3)))))
      )
      (inv_main7 A C B)
    )
  )
)
(assert
  (forall ( (A Int) (B Int) (C Int) (D Heap) (E Int) (F Int) (G Heap) ) 
    (=>
      (and
        (inv_main8 G F E)
        (let ((a!1 (ite (and (not (<= C 0)) (>= (HeapSize D) C))
                (select (HeapContents D) C)
                defObj))
      (a!2 (ite (and (not (<= E 0)) (>= (HeapSize G) E))
                (select (HeapContents G) E)
                defObj)))
(let ((a!3 (store (HeapContents G)
                  (+ 1 (HeapSize G))
                  (O_TData (data (getTNode a!2))))))
(let ((a!4 (= D (HeapCtor (+ 1 (HeapSize G)) a!3))))
  (and (= C E)
       (= B F)
       (= A (+ 1 (HeapSize D)))
       ((_ is O_TNode) a!1)
       ((_ is O_TNode) a!2)
       a!4))))
      )
      (inv_main11 D B C A)
    )
  )
)
(assert
  (forall ( (A Int) (B Int) (C Int) (D Heap) (E Int) (F Int) (G Heap) ) 
    (=>
      (and
        (inv_main30 G F E)
        (let ((a!1 (ite (and (not (<= C 0)) (>= (HeapSize D) C))
                (select (HeapContents D) C)
                defObj))
      (a!2 (ite (and (not (<= E 0)) (>= (HeapSize G) E))
                (select (HeapContents G) E)
                defObj)))
(let ((a!3 (store (HeapContents G)
                  (+ 1 (HeapSize G))
                  (O_TData (data (getTNode a!2))))))
(let ((a!4 (= D (HeapCtor (+ 1 (HeapSize G)) a!3))))
  (and (= C E)
       (= B F)
       (= A (+ 1 (HeapSize D)))
       ((_ is O_TNode) a!1)
       ((_ is O_TNode) a!2)
       a!4))))
      )
      (inv_main33 D B C A)
    )
  )
)
(assert
  (forall ( (A Heap) (B Int) (C Int) (D Heap) ) 
    (=>
      (and
        (inv_main7 D C B)
        (let ((a!1 (ite (and (not (<= B 0)) (>= (HeapSize D) B))
                (select (HeapContents D) B)
                defObj)))
(let ((a!2 (O_TNode (TNode (next (getTNode a!1))
                           0
                           (pData (getTNode a!1))
                           (data (getTNode a!1))))))
(let ((a!3 (ite (and (not (<= B 0)) (>= (HeapSize D) B))
                (HeapCtor (HeapSize D) (store (HeapContents D) B a!2))
                D)))
  (and ((_ is O_TNode) a!1) (= A a!3)))))
      )
      (inv_main8 A C B)
    )
  )
)
(assert
  (forall ( (A Int) (B Heap) (C Int) (D Int) (E Int) (F Int) (G Heap) (H Int) (I Int) (J Int) (K Int) (L Int) (M Heap) (v_13 Int) ) 
    (=>
      (and
        (inv_main36 M L K J I)
        (let ((a!1 (ite (and (not (<= K 0)) (>= (HeapSize M) K))
                (select (HeapContents M) K)
                defObj))
      (a!5 (ite (and (not (<= E 0)) (>= (HeapSize G) E))
                (HeapCtor (HeapSize G) (store (HeapContents G) E defObj))
                G)))
(let ((a!2 (not (<= (pData (getTNode a!1)) 0)))
      (a!4 (HeapCtor (HeapSize M)
                     (store (HeapContents M) (pData (getTNode a!1)) defObj))))
(let ((a!3 (and a!2 (>= (HeapSize M) (pData (getTNode a!1))))))
  (and (= G (ite a!3 a!4 M))
       (not (= 0 H))
       (= F L)
       (= E K)
       (= D J)
       (= C I)
       (= A E)
       (= H F)
       ((_ is O_TNode) a!1)
       (= B a!5)
       (= v_13 H)))))
      )
      (inv_main29 B H v_13)
    )
  )
)
(assert
  (forall ( (A Int) (B Heap) (C Int) (D Int) (E Heap) (F Int) (G Int) (H Int) (I Int) (J Int) (K Int) (L Heap) (v_12 Int) ) 
    (=>
      (and
        (inv_main33 L K J I)
        (let ((a!1 (ite (and (not (<= C 0)) (>= (HeapSize E) C))
                (HeapCtor (HeapSize E) (store (HeapContents E) C defObj))
                E))
      (a!2 (ite (and (not (<= J 0)) (>= (HeapSize L) J))
                (select (HeapContents L) J)
                defObj)))
  (and (= B a!1)
       (not (= 0 H))
       (= H D)
       (= D K)
       (= C J)
       (= A C)
       (= G I)
       (= G F)
       (= F (pData (getTNode a!2)))
       ((_ is O_TNode) a!2)
       (= E L)
       (= v_12 H)))
      )
      (inv_main29 B H v_12)
    )
  )
)
(assert
  (forall ( (A Int) (B Heap) (C Int) (D Int) (E Int) (F Int) (G Int) (H Heap) (v_8 Int) ) 
    (=>
      (and
        (inv_main11 H G F E)
        (let ((a!1 (ite (and (not (<= F 0)) (>= (HeapSize H) F))
                (select (HeapContents H) F)
                defObj)))
(let ((a!2 (O_TNode (TNode (next (getTNode a!1))
                           (prev (getTNode a!1))
                           E
                           (data (getTNode a!1))))))
(let ((a!3 (ite (and (not (<= F 0)) (>= (HeapSize H) F))
                (HeapCtor (HeapSize H) (store (HeapContents H) F a!2))
                H)))
  (and (not (= 0 D))
       (= D F)
       (= A G)
       (= C 0)
       ((_ is O_TNode) a!1)
       (= B a!3)
       (= v_8 D)))))
      )
      (inv_main29 B D v_8)
    )
  )
)
(assert
  (forall ( (A Int) (B Heap) (C Int) (D Int) (E Int) (F Int) (G Int) (H Heap) (v_8 Int) ) 
    (=>
      (and
        (inv_main24 H G F E)
        (let ((a!1 (ite (and (not (<= F 0)) (>= (HeapSize H) F))
                (select (HeapContents H) F)
                defObj)))
(let ((a!2 (O_TNode (TNode (next (getTNode a!1))
                           (prev (getTNode a!1))
                           E
                           (data (getTNode a!1))))))
(let ((a!3 (ite (and (not (<= F 0)) (>= (HeapSize H) F))
                (HeapCtor (HeapSize H) (store (HeapContents H) F a!2))
                H)))
  (and (not (= 0 D))
       (= D F)
       (= A G)
       (= C 0)
       ((_ is O_TNode) a!1)
       (= B a!3)
       (= v_8 D)))))
      )
      (inv_main29 B D v_8)
    )
  )
)
(assert
  (forall ( (A Int) (B Heap) (C Int) (D Int) (E Int) (F Int) (G Int) (H Heap) (v_8 Int) ) 
    (=>
      (and
        (inv_main26 H G F E)
        (let ((a!1 (ite (and (not (<= F 0)) (>= (HeapSize H) F))
                (select (HeapContents H) F)
                defObj)))
(let ((a!2 (O_TNode (TNode (next (getTNode a!1))
                           (prev (getTNode a!1))
                           E
                           (data (getTNode a!1))))))
(let ((a!3 (ite (and (not (<= F 0)) (>= (HeapSize H) F))
                (HeapCtor (HeapSize H) (store (HeapContents H) F a!2))
                H)))
  (and (not (= 0 D))
       (= D F)
       (= A G)
       (= C 0)
       ((_ is O_TNode) a!1)
       (= B a!3)
       (= v_8 D)))))
      )
      (inv_main29 B D v_8)
    )
  )
)
(assert
  (forall ( (A Int) (B Heap) (C Int) (D Int) (E Int) (F Int) (G Int) (H TNode) (I Heap) (J Heap) (K Heap) ) 
    (=>
      (and
        (inv_main2 K)
        (let ((a!1 (HeapCtor (+ 1 (HeapSize I))
                     (store (HeapContents I) (+ 1 (HeapSize I)) (O_TNode H)))))
  (and (= I B)
       (= J a!1)
       (= G F)
       (= D 0)
       (= C (+ 1 (HeapSize I)))
       (= A 0)
       (= F A)
       (= E D)
       (= B K)))
      )
      (inv_main5 J G C)
    )
  )
)
(assert
  (forall ( (A Int) (B Int) (C Int) (D Heap) (E Int) (F Int) (G Heap) ) 
    (=>
      (and
        (inv_main29 G F E)
        (let ((a!1 (ite (and (not (<= F 0)) (>= (HeapSize G) F))
                (select (HeapContents G) F)
                defObj)))
  (and (= C F) (= B E) (= A (next (getTNode a!1))) ((_ is O_TNode) a!1) (= D G)))
      )
      (inv_main30 D A B)
    )
  )
)
(assert
  (forall ( (A Heap) (B Int) (C Int) (D Heap) ) 
    (=>
      (and
        (inv_main16 D C B)
        (let ((a!1 (ite (and (not (<= B 0)) (>= (HeapSize D) B))
                (select (HeapContents D) B)
                defObj)))
(let ((a!2 (O_TNode (TNode C
                           (prev (getTNode a!1))
                           (pData (getTNode a!1))
                           (data (getTNode a!1))))))
(let ((a!3 (ite (and (not (<= B 0)) (>= (HeapSize D) B))
                (HeapCtor (HeapSize D) (store (HeapContents D) B a!2))
                D)))
  (and ((_ is O_TNode) a!1) (= A a!3)))))
      )
      (inv_main18 A C B)
    )
  )
)
(assert
  (forall ( (A Int) (B Int) (C Heap) ) 
    (=>
      (and
        (inv_main5 C B A)
        (let ((a!1 (ite (and (not (<= A 0)) (>= (HeapSize C) A))
                (select (HeapContents C) A)
                defObj)))
  (not ((_ is O_TNode) a!1)))
      )
      CHC_COMP_FALSE
    )
  )
)
(assert
  (forall ( (A Int) (B Int) (C Heap) ) 
    (=>
      (and
        (inv_main7 C B A)
        (let ((a!1 (ite (and (not (<= A 0)) (>= (HeapSize C) A))
                (select (HeapContents C) A)
                defObj)))
  (not ((_ is O_TNode) a!1)))
      )
      CHC_COMP_FALSE
    )
  )
)
(assert
  (forall ( (A Int) (B Int) (C Heap) ) 
    (=>
      (and
        (inv_main8 C B A)
        (let ((a!1 (ite (and (not (<= A 0)) (>= (HeapSize C) A))
                (select (HeapContents C) A)
                defObj)))
  (not ((_ is O_TNode) a!1)))
      )
      CHC_COMP_FALSE
    )
  )
)
(assert
  (forall ( (A Int) (B Int) (C Int) (D Heap) ) 
    (=>
      (and
        (inv_main11 D C B A)
        (let ((a!1 (ite (and (not (<= B 0)) (>= (HeapSize D) B))
                (select (HeapContents D) B)
                defObj)))
  (not ((_ is O_TNode) a!1)))
      )
      CHC_COMP_FALSE
    )
  )
)
(assert
  (forall ( (A Int) (B Int) (C Heap) ) 
    (=>
      (and
        (inv_main16 C B A)
        (let ((a!1 (ite (and (not (<= A 0)) (>= (HeapSize C) A))
                (select (HeapContents C) A)
                defObj)))
  (not ((_ is O_TNode) a!1)))
      )
      CHC_COMP_FALSE
    )
  )
)
(assert
  (forall ( (A Int) (B Int) (C Heap) ) 
    (=>
      (and
        (inv_main18 C B A)
        (let ((a!1 (ite (and (not (<= B 0)) (>= (HeapSize C) B))
                (select (HeapContents C) B)
                defObj)))
  (not ((_ is O_TNode) a!1)))
      )
      CHC_COMP_FALSE
    )
  )
)
(assert
  (forall ( (A Int) (B Int) (C Int) (D Heap) ) 
    (=>
      (and
        (inv_main24 D C B A)
        (let ((a!1 (ite (and (not (<= B 0)) (>= (HeapSize D) B))
                (select (HeapContents D) B)
                defObj)))
  (not ((_ is O_TNode) a!1)))
      )
      CHC_COMP_FALSE
    )
  )
)
(assert
  (forall ( (A Int) (B Int) (C Heap) ) 
    (=>
      (and
        (inv_main22 C B A)
        (let ((a!1 (ite (and (not (<= A 0)) (>= (HeapSize C) A))
                (select (HeapContents C) A)
                defObj)))
  (not ((_ is O_TNode) a!1)))
      )
      CHC_COMP_FALSE
    )
  )
)
(assert
  (forall ( (A Int) (B Int) (C Int) (D Heap) ) 
    (=>
      (and
        (inv_main26 D C B A)
        (let ((a!1 (ite (and (not (<= B 0)) (>= (HeapSize D) B))
                (select (HeapContents D) B)
                defObj)))
  (not ((_ is O_TNode) a!1)))
      )
      CHC_COMP_FALSE
    )
  )
)
(assert
  (forall ( (A Int) (B Int) (C Heap) ) 
    (=>
      (and
        (inv_main29 C B A)
        (let ((a!1 (ite (and (not (<= B 0)) (>= (HeapSize C) B))
                (select (HeapContents C) B)
                defObj)))
  (not ((_ is O_TNode) a!1)))
      )
      CHC_COMP_FALSE
    )
  )
)
(assert
  (forall ( (A Int) (B Int) (C Heap) ) 
    (=>
      (and
        (inv_main30 C B A)
        (let ((a!1 (ite (and (not (<= A 0)) (>= (HeapSize C) A))
                (select (HeapContents C) A)
                defObj)))
  (not ((_ is O_TNode) a!1)))
      )
      CHC_COMP_FALSE
    )
  )
)
(assert
  (forall ( (A Int) (B Int) (C Int) (D Heap) ) 
    (=>
      (and
        (inv_main33 D C B A)
        (let ((a!1 (ite (and (not (<= B 0)) (>= (HeapSize D) B))
                (select (HeapContents D) B)
                defObj)))
  (not ((_ is O_TNode) a!1)))
      )
      CHC_COMP_FALSE
    )
  )
)
(assert
  (forall ( (A Int) (B Int) (C Int) (D Int) (E Heap) ) 
    (=>
      (and
        (inv_main36 E D C B A)
        (let ((a!1 (ite (and (not (<= C 0)) (>= (HeapSize E) C))
                (select (HeapContents E) C)
                defObj)))
  (not ((_ is O_TNode) a!1)))
      )
      CHC_COMP_FALSE
    )
  )
)
(assert
  (forall ( (CHC_COMP_UNUSED Bool) ) 
    (=>
      (and
        CHC_COMP_FALSE
      )
      false
    )
  )
)

(check-sat)
(exit)
